(set-logic NRA)
(declare-fun r () Real)
(declare-fun a () Real)
(declare-fun b () Real)
(assert (exists ((u Real)) (exists ((v Real)) (and (>  (+ (- 1) r) 0) (>  (+ 1 u) 0) (< (* (- 1) (+ (* u (- 1)) v)) 0) (<  (+ (- 1) v) 0) (= (* (- 1) (+ (* u (+ (* r (- 2)) (* u (- 3)))) a)) 0) (= (* (- 1) (+ (* v (+ (* r (- 2)) (* v (- 3)))) a)) 0) (= (* (- 1) (+ (- 1) u) (+ (+ (+ (- 1) (* r (- 1))) (* u (+ (+ (- 1) (* r (- 1))) (* u (- 1))))) a)) 0) (= (* (- 1) (+ (+ (+ (+ (- 1) (* r (- 1))) (* v (* v (+ (* r (- 1)) (* v (- 1)))))) (* a (+ 1 v))) (* b 2))) 0)))))
(apply qe)
